single_objective/SL-DABL/OP/problems/op/OPLib-master/solutions/ea4op/gen3/berlin52-gen3-50.sol
NAME : berlin52
TYPE : OP
DIMENSION : 52
COST_LIMIT : 3771
ROUTE_NODES : 26
ROUTE_SCORE : 1034
ROUTE_COST : 3762
NODE_SEQUENCE_SECTION
1
36
39
40
37
38
48
24
5
15
6
4
25
12
51
11
52
14
13
27
28
26
47
46
34
35
-1
DEPOT_SECTION
1
-1
EOF
